1 - 0
2 - 0
3 - 0
4 - 0
5 - 0
6 - 0
7 - 0
8 - 0
9 - 0
10 - 0
11 - 0
12 - 0
13 - 0
14 - 0
15 - 0
16 - 0
17 - 0
18 - 0
19 - 0
20 - 0
21 - 0
22 - 0
23 - 10
24 - 156
25 - 217
26 - 249
27 - 257
28 - 311
29 - 426
30 - 600
31 - 802
32 - 1104
33 - 1538
34 - 2119
35 - 2845
36 - 3719
37 - 4632
38 - 5615
39 - 6622
40 - 7689
41 - 8396
42 - 8834
43 - 8938
44 - 8922
45 - 8323
46 - 7125
47 - 5692
48 - 4121
49 - 2030
50 - 0

0.1 - 10130
0.2 - 10111
0.3 - 10137
0.4 - 9935
0.5 - 10129
0.6 - 10204
0.7 - 10124
0.8 - 10093
0.9 - 10234
1 - 10195
